(set-info :smt-lib-version 2.6)
(set-info :category "crafted")
(set-logic QF_FF)
(define-sort FF0 () (_ FiniteField 52435875175126190479447740508185965837690552500527637822603658699938581184513))
(declare-fun b () Bool)
(declare-fun a () Bool)
(declare-fun out () FF0)
(declare-fun _46 () FF0)
(declare-fun _28 () FF0)
(declare-fun _45 () FF0)
(declare-fun _38 () FF0)
(declare-fun _43 () FF0)
(declare-fun _42 () FF0)
(declare-fun _27 () FF0)
(declare-fun _22 () FF0)
(declare-fun _19 () FF0)
(declare-fun _37 () FF0)
(declare-fun _0 () FF0)
(declare-fun _36 () FF0)
(declare-fun _34 () FF0)
(declare-fun _33 () FF0)
(declare-fun _17 () FF0)
(declare-fun _16 () FF0)
(declare-fun _25 () FF0)
(declare-fun _26 () FF0)
(declare-fun _6 () FF0)
(declare-fun _5 () FF0)
(declare-fun _20 () FF0)
(declare-fun _24 () FF0)
(declare-fun _12 () FF0)
(declare-fun _1 () FF0)
(declare-fun _11 () FF0)
(declare-fun _10 () FF0)
(declare-fun _9 () FF0)
(declare-fun _8 () FF0)
(assert 
  (let ((let0 b))
  (let ((let1 a))
  (let ((let2 (ite let0 let1 let0)))
  (let ((let3 (and let0 let2 let1 let1 let1 let0)))
  (let ((let4 (ite let2 let2 let3)))
  (let ((let5 (=> let4 let3)))
  (let ((let6 (= let3 let4)))
  (let ((let7 (=> let6 let5)))
  (let ((let8 (not let5)))
  (let ((let9 (=> let8 let7)))
  (let ((let10 (or let9 let4)))
  (let ((let11 (and let6 let2)))
  (let ((let12 (=> let11 let7)))
  (let ((let13 (= let12 let10)))
  (let ((let14 (ite let12 let8 let5)))
  (let ((let15 (or let4 let7 let14 let1)))
  (let ((let16 (ite let7 let5 let12)))
  (let ((let17 (and let16 let15 let13)))
  (let ((let18 out))
  (let ((let19 (as ff1 FF0)))
  (let ((let20 (= let19 let18)))
  (let ((let21 (= let20 let17)))
  (let ((let22 (as ff0 FF0)))
  (let ((let23 (= let22 let18)))
  (let ((let24 (or let20 let23)))
  (let ((let25 (and let24 let21)))
  (let ((let26 _46))
  (let ((let27 (as ff52435875175126190479447740508185965837690552500527637822603658699938581184512 FF0)))
  (let ((let28 _28))
  (let ((let29 (ff.mul let28 let27)))
  (let ((let30 (ff.add let29 let19)))
  (let ((let31 _45))
  (let ((let32 (ff.mul let31 let30)))
  (let ((let33 (= let32 let26)))
  (let ((let34 _38))
  (let ((let35 _43))
  (let ((let36 _42))
  (let ((let37 (ff.add let36 let35)))
  (let ((let38 (ff.mul let37 let34)))
  (let ((let39 (= let38 let31)))
  (let ((let40 _27))
  (let ((let41 _22))
  (let ((let42 (ff.mul let41 let27)))
  (let ((let43 (ff.add let42 let19)))
  (let ((let44 (ff.mul let43 let40)))
  (let ((let45 (= let44 let35)))
  (let ((let46 _19))
  (let ((let47 (ff.mul let41 let46)))
  (let ((let48 (= let47 let36)))
  (let ((let49 (ff.mul let34 let27)))
  (let ((let50 _37))
  (let ((let51 _0))
  (let ((let52 (ff.add let51 let50 let49)))
  (let ((let53 (ff.mul let50 let51)))
  (let ((let54 (= let53 let52)))
  (let ((let55 (ff.mul let50 let27)))
  (let ((let56 _36))
  (let ((let57 _34))
  (let ((let58 _33))
  (let ((let59 (ff.add let58 let57 let56 let55)))
  (let ((let60 (ff.add let58 let57)))
  (let ((let61 (ff.mul let56 let60)))
  (let ((let62 (= let61 let59)))
  (let ((let63 (ff.mul let56 let27)))
  (let ((let64 _17))
  (let ((let65 _16))
  (let ((let66 (ff.add let65 let64 let41 let63)))
  (let ((let67 (ff.add let65 let64)))
  (let ((let68 (ff.mul let67 let41)))
  (let ((let69 (= let68 let66)))
  (let ((let70 (ff.mul let40 let27)))
  (let ((let71 (ff.add let70 let19)))
  (let ((let72 (ff.mul let71 let46)))
  (let ((let73 (= let72 let57)))
  (let ((let74 (ff.mul let46 let27)))
  (let ((let75 (ff.add let74 let19)))
  (let ((let76 (ff.mul let40 let75)))
  (let ((let77 (= let76 let58)))
  (let ((let78 _25))
  (let ((let79 (ff.mul let78 let27)))
  (let ((let80 (ff.add let79 let40)))
  (let ((let81 (ff.mul let80 let80)))
  (let ((let82 (= let81 let28)))
  (let ((let83 _26))
  (let ((let84 (ff.mul let83 let27)))
  (let ((let85 (ff.add let41 let84 let70 let19)))
  (let ((let86 (ff.add let84 let19)))
  (let ((let87 (ff.mul let86 let41)))
  (let ((let88 (= let87 let85)))
  (let ((let89 _6))
  (let ((let90 _5))
  (let ((let91 (ff.add let90 let89)))
  (let ((let92 _20))
  (let ((let93 (ff.mul let92 let27)))
  (let ((let94 (ff.add let93 let19)))
  (let ((let95 (ff.mul let94 let91)))
  (let ((let96 (= let95 let83)))
  (let ((let97 _24))
  (let ((let98 (ff.add let65 let64 let97 let79)))
  (let ((let99 (ff.mul let97 let67)))
  (let ((let100 (= let99 let98)))
  (let ((let101 (ff.mul let97 let27)))
  (let ((let102 (ff.add let46 let41 let101)))
  (let ((let103 (ff.mul let46 let41)))
  (let ((let104 (= let103 let102)))
  (let ((let105 (ff.add let46 let92 let42)))
  (let ((let106 (ff.mul let92 let46)))
  (let ((let107 (= let106 let105)))
  (let ((let108 (ff.mul let64 let27)))
  (let ((let109 (ff.mul let65 let27)))
  (let ((let110 _12))
  (let ((let111 (ff.add let110 let109 let108)))
  (let ((let112 (ff.mul let111 let111)))
  (let ((let113 (= let112 let92)))
  (let ((let114 (ff.add let110 let109 let108 let74 let19)))
  (let ((let115 (ff.add let109 let108 let19)))
  (let ((let116 (ff.mul let115 let110)))
  (let ((let117 (= let116 let114)))
  (let ((let118 (ff.mul let89 let27)))
  (let ((let119 (ff.mul let90 let27)))
  (let ((let120 (ff.add let119 let118 let19)))
  (let ((let121 (ff.mul let120 let110)))
  (let ((let122 (= let121 let64)))
  (let ((let123 (ff.mul let91 let91)))
  (let ((let124 (= let123 let65)))
  (let ((let125 _1))
  (let ((let126 _11))
  (let ((let127 (ff.mul let126 let125)))
  (let ((let128 (= let127 let110)))
  (let ((let129 _10))
  (let ((let130 (ff.mul let129 let51)))
  (let ((let131 (= let130 let126)))
  (let ((let132 _9))
  (let ((let133 (ff.mul let132 let51)))
  (let ((let134 (= let133 let129)))
  (let ((let135 _8))
  (let ((let136 (ff.mul let135 let51)))
  (let ((let137 (= let136 let132)))
  (let ((let138 (ff.mul let125 let91)))
  (let ((let139 (= let138 let135)))
  (let ((let140 (ff.mul let125 let27)))
  (let ((let141 (ff.add let140 let19)))
  (let ((let142 (ff.mul let141 let125)))
  (let ((let143 (= let142 let89)))
  (let ((let144 (ff.mul let125 let51)))
  (let ((let145 (= let144 let90)))
  (let ((let146 (ff.mul let125 let125)))
  (let ((let147 (= let146 let125)))
  (let ((let148 (ff.mul let51 let51)))
  (let ((let149 (= let148 let51)))
  (let ((let150 (and let149 let147 let145 let143 let139 let137 let134 let131 let128 let124 let122 let117 let113 let107 let104 let100 let96 let88 let82 let77 let73 let69 let62 let54 let48 let45 let39 let33)))
  (let ((let151 (ite let0 let19 let22)))
  (let ((let152 (= let125 let151)))
  (let ((let153 (ite let1 let19 let22)))
  (let ((let154 (= let51 let153)))
  (let ((let155 (and let154 let152)))
  (let ((let156 (and let155 let150)))
  (let ((let157 (=> let156 let25)))
  (let ((let158 (not let157)))
  let158
)))))))))))))))))))))))))))))))))))))))))))))))))))))))))))))))))))))))))))))))))))))))))))))))))))))))))))))))))))))))))))))))))))))))))))))))))))))))))))))))
)
(check-sat)
